Using license file /home/benedond/gurobi.lic
Using gurobi.env file
Set parameter Threads to value 1
Academic license - for non-commercial use only
Changed value of parameter TimeLimit to 300.0
   Prev: inf  Min: 0.0  Max: inf  Default: inf
Gurobi Optimizer version 9.0.1 build v9.0.1rc0 (linux64)
Optimize a model with 880 rows, 820 columns and 3258 nonzeros
Model fingerprint: 0xb61b1bf3
Variable types: 20 continuous, 800 integer (800 binary)
Coefficient statistics:
  Matrix range     [1e+00, 5e+02]
  Objective range  [3e+01, 5e+02]
  Bounds range     [1e+00, 1e+00]
  RHS range        [1e+00, 1e+03]
Presolve removed 485 rows and 473 columns
Presolve time: 0.19s
Presolved: 395 rows, 347 columns, 2684 nonzeros
Variable types: 20 continuous, 327 integer (327 binary)

Root relaxation: objective 3.927000e+03, 139 iterations, 0.00 seconds

    Nodes    |    Current Node    |     Objective Bounds      |     Work
 Expl Unexpl |  Obj  Depth IntInf | Incumbent    BestBd   Gap | It/Node Time

     0     0 3927.00000    0   12          - 3927.00000      -     -    0s
H    0     0                    3879.0000000 3927.00000  1.24%     -    0s
     0     0 3927.00000    0   38 3879.00000 3927.00000  1.24%     -    0s
     0     0 3927.00000    0   36 3879.00000 3927.00000  1.24%     -    0s
     0     0 3927.00000    0   13 3879.00000 3927.00000  1.24%     -    0s
     0     0 3927.00000    0   13 3879.00000 3927.00000  1.24%     -    0s
     0     0 3927.00000    0   16 3879.00000 3927.00000  1.24%     -    0s
H    0     0                    3904.0000000 3927.00000  0.59%     -    0s
     0     0 3927.00000    0   13 3904.00000 3927.00000  0.59%     -    0s
     0     0 3927.00000    0   14 3904.00000 3927.00000  0.59%     -    0s
     0     0 3927.00000    0   11 3904.00000 3927.00000  0.59%     -    0s
     0     0 3927.00000    0   18 3904.00000 3927.00000  0.59%     -    0s
     0     0 3927.00000    0   14 3904.00000 3927.00000  0.59%     -    0s
     0     0 3927.00000    0   13 3904.00000 3927.00000  0.59%     -    0s
     0     0 3927.00000    0   13 3904.00000 3927.00000  0.59%     -    0s
     0     2 3927.00000    0   12 3904.00000 3927.00000  0.59%     -    0s

Cutting planes:
  Gomory: 1
  Cover: 731
  MIR: 43
  GUB cover: 2
  RLT: 1
  Relax-and-lift: 14

Explored 3619 nodes (43277 simplex iterations) in 1.96 seconds
Thread count was 1 (of 4 available processors)

Solution count 2: 3904 3879 

Optimal solution found (tolerance 1.00e-04)
Best objective 3.904000000000e+03, best bound 3.904000000000e+03, gap 0.0000%
